(set-logic QF_S)
(declare-fun var_0xINPUT_124343 () String)
(assert (and (= (len var_0xINPUT_124343) 0) (= (len var_0xINPUT_124343) 0) (not (= var_0xINPUT_124343 "Example:")) (not (= var_0xINPUT_124343 "4PH2ujcENG"))))
(check-sat var_0xINPUT_124343)